
Gurobi 11.0.2 (mac64[arm], Python) logging started Mon May 27 13:55:58 2024

Set parameter Username
Set parameter LogFile to value "gurobi.log"
Academic license - for non-commercial use only - expires 2025-05-26
Gurobi Optimizer version 11.0.2 build v11.0.2rc0 (mac64[arm] - Darwin 23.2.0 23C71)

CPU model: Apple M2
Thread count: 8 physical cores, 8 logical processors, using up to 8 threads

Optimize a model with 14215 rows, 7440 columns and 49121 nonzeros
Model fingerprint: 0x1651c441
Variable types: 48 continuous, 7392 integer (7392 binary)
Coefficient statistics:
  Matrix range     [1e+00, 5e+01]
  Objective range  [1e+00, 1e+00]
  Bounds range     [1e+00, 1e+00]
  RHS range        [1e+00, 5e+01]
Presolve removed 12793 rows and 6969 columns
Presolve time: 0.01s
Presolved: 1422 rows, 471 columns, 3623 nonzeros
Variable types: 48 continuous, 423 integer (423 binary)
Found heuristic solution: objective 13.0002285

Root relaxation: objective 0.000000e+00, 103 iterations, 0.00 seconds (0.00 work units)

    Nodes    |    Current Node    |     Objective Bounds      |     Work
 Expl Unexpl |  Obj  Depth IntInf | Incumbent    BestBd   Gap | It/Node Time

H    0     0                       0.0000000    0.00000  0.00%     -    0s
     0     0    0.00000    0   77    0.00000    0.00000  0.00%     -    0s

Explored 1 nodes (103 simplex iterations) in 0.03 seconds (0.04 work units)
Thread count was 8 (of 8 available processors)

Solution count 2: 0 13.0002 

Optimal solution found (tolerance 1.00e-04)
Best objective 0.000000000000e+00, best bound 0.000000000000e+00, gap 0.0000%
